
Gurobi 12.0.2 (mac64[x86], gurobi_cl) logging started Tue Mar  3 09:37:05 2026

Set parameter LogFile to value "gurobi.log"

Gurobi 12.0.2 (mac64[x86], gurobi_cl) logging started Tue Mar  3 09:42:43 2026

Set parameter Username
Set parameter LicenseID to value 2673666
Set parameter LogFile to value "gurobi.log"
Using license file /Library/gurobi1202/gurobi.lic
Academic license - for non-commercial use only - expires 2026-05-30
